c 5 8 rc
p cnf 40 517
1 2 3 4 5 6 7 8 0
-1 -2 0
-1 -3 0
-1 -4 0
-1 -5 0
-1 -6 0
-1 -7 0
-1 -8 0
-2 -3 0
-2 -4 0
-2 -5 0
-2 -6 0
-2 -7 0
-2 -8 0
-3 -4 0
-3 -5 0
-3 -6 0
-3 -7 0
-3 -8 0
-4 -5 0
-4 -6 0
-4 -7 0
-4 -8 0
-5 -6 0
-5 -7 0
-5 -8 0
-6 -7 0
-6 -8 0
-7 -8 0
9 10 11 12 13 14 15 0
9 10 11 12 13 14 16 0
9 10 11 12 13 15 16 0
9 10 11 12 14 15 16 0
9 10 11 13 14 15 16 0
9 10 12 13 14 15 16 0
9 11 12 13 14 15 16 0
10 11 12 13 14 15 16 0
-9 -10 -11 0
-9 -10 -12 0
-9 -10 -13 0
-9 -10 -14 0
-9 -10 -15 0
-9 -10 -16 0
-9 -11 -12 0
-9 -11 -13 0
-9 -11 -14 0
-9 -11 -15 0
-9 -11 -16 0
-9 -12 -13 0
-9 -12 -14 0
-9 -12 -15 0
-9 -12 -16 0
-9 -13 -14 0
-9 -13 -15 0
-9 -13 -16 0
-9 -14 -15 0
-9 -14 -16 0
-9 -15 -16 0
-10 -11 -12 0
-10 -11 -13 0
-10 -11 -14 0
-10 -11 -15 0
-10 -11 -16 0
-10 -12 -13 0
-10 -12 -14 0
-10 -12 -15 0
-10 -12 -16 0
-10 -13 -14 0
-10 -13 -15 0
-10 -13 -16 0
-10 -14 -15 0
-10 -14 -16 0
-10 -15 -16 0
-11 -12 -13 0
-11 -12 -14 0
-11 -12 -15 0
-11 -12 -16 0
-11 -13 -14 0
-11 -13 -15 0
-11 -13 -16 0
-11 -14 -15 0
-11 -14 -16 0
-11 -15 -16 0
-12 -13 -14 0
-12 -13 -15 0
-12 -13 -16 0
-12 -14 -15 0
-12 -14 -16 0
-12 -15 -16 0
-13 -14 -15 0
-13 -14 -16 0
-13 -15 -16 0
-14 -15 -16 0
17 18 19 20 21 22 0
17 18 19 20 21 23 0
17 18 19 20 21 24 0
17 18 19 20 22 23 0
17 18 19 20 22 24 0
17 18 19 20 23 24 0
17 18 19 21 22 23 0
17 18 19 21 22 24 0
17 18 19 21 23 24 0
17 18 19 22 23 24 0
17 18 20 21 22 23 0
17 18 20 21 22 24 0
17 18 20 21 23 24 0
17 18 20 22 23 24 0
17 18 21 22 23 24 0
17 19 20 21 22 23 0
17 19 20 21 22 24 0
17 19 20 21 23 24 0
17 19 20 22 23 24 0
17 19 21 22 23 24 0
17 20 21 22 23 24 0
18 19 20 21 22 23 0
18 19 20 21 22 24 0
18 19 20 21 23 24 0
18 19 20 22 23 24 0
18 19 21 22 23 24 0
18 20 21 22 23 24 0
19 20 21 22 23 24 0
-17 -18 -19 -20 0
-17 -18 -19 -21 0
-17 -18 -19 -22 0
-17 -18 -19 -23 0
-17 -18 -19 -24 0
-17 -18 -20 -21 0
-17 -18 -20 -22 0
-17 -18 -20 -23 0
-17 -18 -20 -24 0
-17 -18 -21 -22 0
-17 -18 -21 -23 0
-17 -18 -21 -24 0
-17 -18 -22 -23 0
-17 -18 -22 -24 0
-17 -18 -23 -24 0
-17 -19 -20 -21 0
-17 -19 -20 -22 0
-17 -19 -20 -23 0
-17 -19 -20 -24 0
-17 -19 -21 -22 0
-17 -19 -21 -23 0
-17 -19 -21 -24 0
-17 -19 -22 -23 0
-17 -19 -22 -24 0
-17 -19 -23 -24 0
-17 -20 -21 -22 0
-17 -20 -21 -23 0
-17 -20 -21 -24 0
-17 -20 -22 -23 0
-17 -20 -22 -24 0
-17 -20 -23 -24 0
-17 -21 -22 -23 0
-17 -21 -22 -24 0
-17 -21 -23 -24 0
-17 -22 -23 -24 0
-18 -19 -20 -21 0
-18 -19 -20 -22 0
-18 -19 -20 -23 0
-18 -19 -20 -24 0
-18 -19 -21 -22 0
-18 -19 -21 -23 0
-18 -19 -21 -24 0
-18 -19 -22 -23 0
-18 -19 -22 -24 0
-18 -19 -23 -24 0
-18 -20 -21 -22 0
-18 -20 -21 -23 0
-18 -20 -21 -24 0
-18 -20 -22 -23 0
-18 -20 -22 -24 0
-18 -20 -23 -24 0
-18 -21 -22 -23 0
-18 -21 -22 -24 0
-18 -21 -23 -24 0
-18 -22 -23 -24 0
-19 -20 -21 -22 0
-19 -20 -21 -23 0
-19 -20 -21 -24 0
-19 -20 -22 -23 0
-19 -20 -22 -24 0
-19 -20 -23 -24 0
-19 -21 -22 -23 0
-19 -21 -22 -24 0
-19 -21 -23 -24 0
-19 -22 -23 -24 0
-20 -21 -22 -23 0
-20 -21 -22 -24 0
-20 -21 -23 -24 0
-20 -22 -23 -24 0
-21 -22 -23 -24 0
25 26 27 28 29 0
25 26 27 28 30 0
25 26 27 28 31 0
25 26 27 28 32 0
25 26 27 29 30 0
25 26 27 29 31 0
25 26 27 29 32 0
25 26 27 30 31 0
25 26 27 30 32 0
25 26 27 31 32 0
25 26 28 29 30 0
25 26 28 29 31 0
25 26 28 29 32 0
25 26 28 30 31 0
25 26 28 30 32 0
25 26 28 31 32 0
25 26 29 30 31 0
25 26 29 30 32 0
25 26 29 31 32 0
25 26 30 31 32 0
25 27 28 29 30 0
25 27 28 29 31 0
25 27 28 29 32 0
25 27 28 30 31 0
25 27 28 30 32 0
25 27 28 31 32 0
25 27 29 30 31 0
25 27 29 30 32 0
25 27 29 31 32 0
25 27 30 31 32 0
25 28 29 30 31 0
25 28 29 30 32 0
25 28 29 31 32 0
25 28 30 31 32 0
25 29 30 31 32 0
26 27 28 29 30 0
26 27 28 29 31 0
26 27 28 29 32 0
26 27 28 30 31 0
26 27 28 30 32 0
26 27 28 31 32 0
26 27 29 30 31 0
26 27 29 30 32 0
26 27 29 31 32 0
26 27 30 31 32 0
26 28 29 30 31 0
26 28 29 30 32 0
26 28 29 31 32 0
26 28 30 31 32 0
26 29 30 31 32 0
27 28 29 30 31 0
27 28 29 30 32 0
27 28 29 31 32 0
27 28 30 31 32 0
27 29 30 31 32 0
28 29 30 31 32 0
-25 -26 -27 -28 -29 0
-25 -26 -27 -28 -30 0
-25 -26 -27 -28 -31 0
-25 -26 -27 -28 -32 0
-25 -26 -27 -29 -30 0
-25 -26 -27 -29 -31 0
-25 -26 -27 -29 -32 0
-25 -26 -27 -30 -31 0
-25 -26 -27 -30 -32 0
-25 -26 -27 -31 -32 0
-25 -26 -28 -29 -30 0
-25 -26 -28 -29 -31 0
-25 -26 -28 -29 -32 0
-25 -26 -28 -30 -31 0
-25 -26 -28 -30 -32 0
-25 -26 -28 -31 -32 0
-25 -26 -29 -30 -31 0
-25 -26 -29 -30 -32 0
-25 -26 -29 -31 -32 0
-25 -26 -30 -31 -32 0
-25 -27 -28 -29 -30 0
-25 -27 -28 -29 -31 0
-25 -27 -28 -29 -32 0
-25 -27 -28 -30 -31 0
-25 -27 -28 -30 -32 0
-25 -27 -28 -31 -32 0
-25 -27 -29 -30 -31 0
-25 -27 -29 -30 -32 0
-25 -27 -29 -31 -32 0
-25 -27 -30 -31 -32 0
-25 -28 -29 -30 -31 0
-25 -28 -29 -30 -32 0
-25 -28 -29 -31 -32 0
-25 -28 -30 -31 -32 0
-25 -29 -30 -31 -32 0
-26 -27 -28 -29 -30 0
-26 -27 -28 -29 -31 0
-26 -27 -28 -29 -32 0
-26 -27 -28 -30 -31 0
-26 -27 -28 -30 -32 0
-26 -27 -28 -31 -32 0
-26 -27 -29 -30 -31 0
-26 -27 -29 -30 -32 0
-26 -27 -29 -31 -32 0
-26 -27 -30 -31 -32 0
-26 -28 -29 -30 -31 0
-26 -28 -29 -30 -32 0
-26 -28 -29 -31 -32 0
-26 -28 -30 -31 -32 0
-26 -29 -30 -31 -32 0
-27 -28 -29 -30 -31 0
-27 -28 -29 -30 -32 0
-27 -28 -29 -31 -32 0
-27 -28 -30 -31 -32 0
-27 -29 -30 -31 -32 0
-28 -29 -30 -31 -32 0
33 34 35 36 0
33 34 35 37 0
33 34 35 38 0
33 34 35 39 0
33 34 35 40 0
33 34 36 37 0
33 34 36 38 0
33 34 36 39 0
33 34 36 40 0
33 34 37 38 0
33 34 37 39 0
33 34 37 40 0
33 34 38 39 0
33 34 38 40 0
33 34 39 40 0
33 35 36 37 0
33 35 36 38 0
33 35 36 39 0
33 35 36 40 0
33 35 37 38 0
33 35 37 39 0
33 35 37 40 0
33 35 38 39 0
33 35 38 40 0
33 35 39 40 0
33 36 37 38 0
33 36 37 39 0
33 36 37 40 0
33 36 38 39 0
33 36 38 40 0
33 36 39 40 0
33 37 38 39 0
33 37 38 40 0
33 37 39 40 0
33 38 39 40 0
34 35 36 37 0
34 35 36 38 0
34 35 36 39 0
34 35 36 40 0
34 35 37 38 0
34 35 37 39 0
34 35 37 40 0
34 35 38 39 0
34 35 38 40 0
34 35 39 40 0
34 36 37 38 0
34 36 37 39 0
34 36 37 40 0
34 36 38 39 0
34 36 38 40 0
34 36 39 40 0
34 37 38 39 0
34 37 38 40 0
34 37 39 40 0
34 38 39 40 0
35 36 37 38 0
35 36 37 39 0
35 36 37 40 0
35 36 38 39 0
35 36 38 40 0
35 36 39 40 0
35 37 38 39 0
35 37 38 40 0
35 37 39 40 0
35 38 39 40 0
36 37 38 39 0
36 37 38 40 0
36 37 39 40 0
36 38 39 40 0
37 38 39 40 0
-33 -34 -35 -36 -37 -38 0
-33 -34 -35 -36 -37 -39 0
-33 -34 -35 -36 -37 -40 0
-33 -34 -35 -36 -38 -39 0
-33 -34 -35 -36 -38 -40 0
-33 -34 -35 -36 -39 -40 0
-33 -34 -35 -37 -38 -39 0
-33 -34 -35 -37 -38 -40 0
-33 -34 -35 -37 -39 -40 0
-33 -34 -35 -38 -39 -40 0
-33 -34 -36 -37 -38 -39 0
-33 -34 -36 -37 -38 -40 0
-33 -34 -36 -37 -39 -40 0
-33 -34 -36 -38 -39 -40 0
-33 -34 -37 -38 -39 -40 0
-33 -35 -36 -37 -38 -39 0
-33 -35 -36 -37 -38 -40 0
-33 -35 -36 -37 -39 -40 0
-33 -35 -36 -38 -39 -40 0
-33 -35 -37 -38 -39 -40 0
-33 -36 -37 -38 -39 -40 0
-34 -35 -36 -37 -38 -39 0
-34 -35 -36 -37 -38 -40 0
-34 -35 -36 -37 -39 -40 0
-34 -35 -36 -38 -39 -40 0
-34 -35 -37 -38 -39 -40 0
-34 -36 -37 -38 -39 -40 0
-35 -36 -37 -38 -39 -40 0
1 9 17 25 0
1 9 17 33 0
1 9 25 33 0
1 17 25 33 0
9 17 25 33 0
-1 -9 -17 0
-1 -9 -25 0
-1 -9 -33 0
-1 -17 -25 0
-1 -17 -33 0
-1 -25 -33 0
-9 -17 -25 0
-9 -17 -33 0
-9 -25 -33 0
-17 -25 -33 0
2 10 18 26 0
2 10 18 34 0
2 10 26 34 0
2 18 26 34 0
10 18 26 34 0
-2 -10 -18 0
-2 -10 -26 0
-2 -10 -34 0
-2 -18 -26 0
-2 -18 -34 0
-2 -26 -34 0
-10 -18 -26 0
-10 -18 -34 0
-10 -26 -34 0
-18 -26 -34 0
3 11 19 27 0
3 11 19 35 0
3 11 27 35 0
3 19 27 35 0
11 19 27 35 0
-3 -11 -19 0
-3 -11 -27 0
-3 -11 -35 0
-3 -19 -27 0
-3 -19 -35 0
-3 -27 -35 0
-11 -19 -27 0
-11 -19 -35 0
-11 -27 -35 0
-19 -27 -35 0
4 12 20 28 0
4 12 20 36 0
4 12 28 36 0
4 20 28 36 0
12 20 28 36 0
-4 -12 -20 0
-4 -12 -28 0
-4 -12 -36 0
-4 -20 -28 0
-4 -20 -36 0
-4 -28 -36 0
-12 -20 -28 0
-12 -20 -36 0
-12 -28 -36 0
-20 -28 -36 0
5 13 21 29 0
5 13 21 37 0
5 13 29 37 0
5 21 29 37 0
13 21 29 37 0
-5 -13 -21 0
-5 -13 -29 0
-5 -13 -37 0
-5 -21 -29 0
-5 -21 -37 0
-5 -29 -37 0
-13 -21 -29 0
-13 -21 -37 0
-13 -29 -37 0
-21 -29 -37 0
6 14 22 30 0
6 14 22 38 0
6 14 30 38 0
6 22 30 38 0
14 22 30 38 0
-6 -14 -22 0
-6 -14 -30 0
-6 -14 -38 0
-6 -22 -30 0
-6 -22 -38 0
-6 -30 -38 0
-14 -22 -30 0
-14 -22 -38 0
-14 -30 -38 0
-22 -30 -38 0
7 15 23 31 0
7 15 23 39 0
7 15 31 39 0
7 23 31 39 0
15 23 31 39 0
-7 -15 -23 0
-7 -15 -31 0
-7 -15 -39 0
-7 -23 -31 0
-7 -23 -39 0
-7 -31 -39 0
-15 -23 -31 0
-15 -23 -39 0
-15 -31 -39 0
-23 -31 -39 0
8 16 24 32 40 0
-8 -16 0
-8 -24 0
-8 -32 0
-8 -40 0
-16 -24 0
-16 -32 0
-16 -40 0
-24 -32 0
-24 -40 0
-32 -40 0
